Version identifier: 22.1.0.0 | 2022-03-09 | 1a383f8ce
CPXPARAM_Threads                                 1
CPXPARAM_MIP_Strategy_VariableSelect             3
CPXPARAM_TimeLimit                               599.99997670100004
1 of 1 MIP starts provided solutions.
MIP start 'm1' defined initial solution with objective 17.0000.
Tried aggregator 2 times.
MIP Presolve eliminated 39 rows and 1 columns.
MIP Presolve added 28 rows and 7 columns.
MIP Presolve modified 135 coefficients.
Aggregator did 7 substitutions.
Reduced MIP has 903 rows, 2100 columns, and 25030 nonzeros.
Reduced MIP has 2100 binaries, 0 generals, 0 SOSs, and 0 indicators.
Presolve time = 0.04 sec. (57.32 ticks)
Probing time = 0.01 sec. (7.99 ticks)
Tried aggregator 1 time.
Detecting symmetries...
MIP Presolve modified 14 coefficients.
Reduced MIP has 903 rows, 2100 columns, and 25429 nonzeros.
Reduced MIP has 2100 binaries, 0 generals, 0 SOSs, and 0 indicators.
Presolve time = 0.03 sec. (28.77 ticks)
Probing time = 0.01 sec. (8.05 ticks)
Clique table members: 593.
MIP emphasis: balance optimality and feasibility.
MIP search method: dynamic search.
Parallel mode: none, using 1 thread.
Root relaxation solution time = 0.13 sec. (128.11 ticks)

        Nodes                                         Cuts/
   Node  Left     Objective  IInf  Best Integer    Best Bound    ItCnt     Gap

*     0+    0                           17.0000     5050.0000              --- 
      0     0      100.0000   419       17.0000      100.0000     1397  488.24%
      0     0      100.0000   309       17.0000      Cuts: 20     1799  488.24%
      0     0      100.0000   408       17.0000     Cuts: 134     3690  488.24%
      0     0      100.0000   179       17.0000    Cliques: 2     3964  488.24%
*     0+    0                           58.0000      100.0000            72.41%
*     0+    0                           92.0000      100.0000             8.70%
*     0+    0                           93.0000      100.0000             7.53%
      0     0        cutoff             93.0000      100.0000     3964    7.53%
      0     0      100.0000   474       93.0000      Cuts: 80     5274    7.53%
*     0+    0                           95.0000      100.0000             5.26%
      0     0        cutoff             95.0000      100.0000     5274    5.26%
Detecting symmetries...
      0     2      100.0000   142       95.0000      100.0000     5274    5.26%
Elapsed time = 4.55 sec. (4216.54 ticks, tree = 0.01 MB, solutions = 5)
      1     3      100.0000   405       95.0000      100.0000     9070    5.26%
      3     5      100.0000   266       95.0000      100.0000    11698    5.26%
      5     7      100.0000   320       95.0000      100.0000    11972    5.26%
      7     9      100.0000   259       95.0000      100.0000    12207    5.26%
      9    11      100.0000   271       95.0000      100.0000    12743    5.26%
     10    12      100.0000   295       95.0000      100.0000    13344    5.26%
     13    15      100.0000   380       95.0000      100.0000    13936    5.26%
     15    17      100.0000   276       95.0000      100.0000    14219    5.26%
     18    20      100.0000   264       95.0000      100.0000    15475    5.26%
     27    29      100.0000   257       95.0000      100.0000    19089    5.26%
Elapsed time = 8.53 sec. (8176.78 ticks, tree = 0.21 MB, solutions = 5)
     37    39      100.0000   201       95.0000      100.0000    23473    5.26%
     45    47      100.0000   203       95.0000      100.0000    26875    5.26%
     52    54      100.0000   148       95.0000      100.0000    29504    5.26%
     60    62      100.0000   144       95.0000      100.0000    34319    5.26%
     69    71      100.0000   266       95.0000      100.0000    39119    5.26%
     77    79      100.0000   259       95.0000      100.0000    45270    5.26%
     85    87      100.0000   266       95.0000      100.0000    49718    5.26%
     94    96      100.0000   161       95.0000      100.0000    54163    5.26%
    104   106      100.0000   256       95.0000      100.0000    57758    5.26%
    114   116      100.0000   284       95.0000      100.0000    61336    5.26%
Elapsed time = 19.64 sec. (18849.36 ticks, tree = 0.85 MB, solutions = 5)
    122   124      100.0000   169       95.0000      100.0000    64696    5.26%
    132   134      100.0000   181       95.0000      100.0000    68246    5.26%
    143   145      100.0000   180       95.0000      100.0000    70709    5.26%
    153   155      100.0000   177       95.0000      100.0000    75163    5.26%
    163   165      100.0000   235       95.0000      100.0000    78902    5.26%
    174   174      100.0000   231       95.0000      100.0000    83027    5.26%
    186   186      100.0000   164       95.0000      100.0000    86363    5.26%
    199   191      100.0000   209       95.0000      100.0000    92510    5.26%
    213   199      100.0000   168       95.0000      100.0000    97255    5.26%
    231   201      100.0000   183       95.0000      100.0000   103967    5.26%
Elapsed time = 30.02 sec. (28695.07 ticks, tree = 1.57 MB, solutions = 5)
    243   203      100.0000   275       95.0000      100.0000   110987    5.26%
    251   203      100.0000   266       95.0000      100.0000   118997    5.26%
    260   204    infeasible             95.0000      100.0000   128298    5.26%
    270   210      100.0000   214       95.0000      100.0000   134155    5.26%
    283   213    infeasible             95.0000      100.0000   140741    5.26%
    298   214      100.0000   192       95.0000      100.0000   148326    5.26%
    308   213      100.0000   251       95.0000      100.0000   156639    5.26%
    316   217      100.0000   232       95.0000      100.0000   162804    5.26%
    324   219      100.0000   137       95.0000      100.0000   170061    5.26%
    333   221      100.0000   218       95.0000      100.0000   175893    5.26%
Elapsed time = 40.87 sec. (38862.70 ticks, tree = 1.73 MB, solutions = 5)
    342   226      100.0000   177       95.0000      100.0000   181707    5.26%
    353   231      100.0000   156       95.0000      100.0000   187958    5.26%
    364   232      100.0000   149       95.0000      100.0000   196000    5.26%
    376   234      100.0000   171       95.0000      100.0000   202389    5.26%
    388   236    infeasible             95.0000      100.0000   208888    5.26%
    400   242      100.0000   227       95.0000      100.0000   214411    5.26%
    415   249    infeasible             95.0000      100.0000   220131    5.26%
    433   249      100.0000   147       95.0000      100.0000   227166    5.26%
    447   249      100.0000   228       95.0000      100.0000   234815    5.26%
    461   249      100.0000   214       95.0000      100.0000   242397    5.26%
Elapsed time = 51.59 sec. (48806.92 ticks, tree = 1.98 MB, solutions = 5)
    470   253      100.0000   230       95.0000      100.0000   247791    5.26%
    482   255      100.0000   219       95.0000      100.0000   253339    5.26%
    493   260      100.0000   229       95.0000      100.0000   258328    5.26%
    507   260    infeasible             95.0000      100.0000   265018    5.26%
    521   266      100.0000   200       95.0000      100.0000   270742    5.26%
    529   266      100.0000   307       95.0000      100.0000   278803    5.26%
    537   270      100.0000   302       95.0000      100.0000   285317    5.26%
    545   272      100.0000   259       95.0000      100.0000   293069    5.26%
    552   271    infeasible             95.0000      100.0000   303499    5.26%
    560   273      100.0000   278       95.0000      100.0000   309986    5.26%
Elapsed time = 62.63 sec. (58996.24 ticks, tree = 2.20 MB, solutions = 5)
    570   277      100.0000   209       95.0000      100.0000   316097    5.26%
    577   280      100.0000   199       95.0000      100.0000   323094    5.26%
    586   289      100.0000   191       95.0000      100.0000   326315    5.26%
    597   300      100.0000   245       95.0000      100.0000   329025    5.26%
    608   309      100.0000   188       95.0000      100.0000   332379    5.26%
    619   320      100.0000   158       95.0000      100.0000   335385    5.26%
    630   327      100.0000   165       95.0000      100.0000   340347    5.26%
    642   329    infeasible             95.0000      100.0000   347708    5.26%
    654   337      100.0000   177       95.0000      100.0000   353400    5.26%
    667   338    infeasible             95.0000      100.0000   360635    5.26%
Elapsed time = 73.28 sec. (68878.87 ticks, tree = 2.80 MB, solutions = 5)
    682   339    infeasible             95.0000      100.0000   366896    5.26%
    695   338    infeasible             95.0000      100.0000   374822    5.26%
    708   341      100.0000   165       95.0000      100.0000   381118    5.26%
    722   345      100.0000   173       95.0000      100.0000   386468    5.26%
    734   349      100.0000   150       95.0000      100.0000   392496    5.26%
    749   350    infeasible             95.0000      100.0000   399630    5.26%
    763   352      100.0000   149       95.0000      100.0000   406247    5.26%
    776   351    infeasible             95.0000      100.0000   413810    5.26%
    791   350    infeasible             95.0000      100.0000   421748    5.26%
    804   353    infeasible             95.0000      100.0000   428236    5.26%
Elapsed time = 83.94 sec. (78740.28 ticks, tree = 2.93 MB, solutions = 5)
    818   353      100.0000   146       95.0000      100.0000   435581    5.26%
    831   352    infeasible             95.0000      100.0000   442931    5.26%
    843   352    infeasible             95.0000      100.0000   450443    5.26%
    857   352      100.0000   174       95.0000      100.0000   457576    5.26%
    871   356    infeasible             95.0000      100.0000   463524    5.26%
    887   356      100.0000   149       95.0000      100.0000   470465    5.26%
    903   356    infeasible             95.0000      100.0000   477593    5.26%
    919   355    infeasible             95.0000      100.0000   484667    5.26%
    932   358      100.0000   156       95.0000      100.0000   491115    5.26%
    950   360      100.0000   137       95.0000      100.0000   496932    5.26%
Elapsed time = 94.60 sec. (88533.15 ticks, tree = 2.99 MB, solutions = 5)
    965   361      100.0000   127       95.0000      100.0000   503813    5.26%
    984   358      100.0000   143       95.0000      100.0000   511097    5.26%
    999   359      100.0000   158       95.0000      100.0000   518422    5.26%
   1014   352    infeasible             95.0000      100.0000   529124    5.26%
   1027   359      100.0000   152       95.0000      100.0000   533588    5.26%
   1042   358      100.0000   122       95.0000      100.0000   540617    5.26%
   1058   354      100.0000   154       95.0000      100.0000   549335    5.26%
   1070   364      100.0000   157       95.0000      100.0000   552882    5.26%
   1084   358      100.0000   153       95.0000      100.0000   562812    5.26%
   1137   355      100.0000   148       95.0000      100.0000   593567    5.26%
Elapsed time = 108.50 sec. (101382.01 ticks, tree = 2.94 MB, solutions = 5)
   1199   354    infeasible             95.0000      100.0000   620544    5.26%
   1255   360    infeasible             95.0000      100.0000   646386    5.26%
   1319   364    infeasible             95.0000      100.0000   673366    5.26%
   1379   364      100.0000   128       95.0000      100.0000   701830    5.26%
   1433   382      100.0000   161       95.0000      100.0000   724861    5.26%
   1490   380    infeasible             95.0000      100.0000   754811    5.26%
   1549   369    infeasible             95.0000      100.0000   788210    5.26%
   1602   374    infeasible             95.0000      100.0000   815621    5.26%
   1661   382      100.0000   168       95.0000      100.0000   840290    5.26%
   1715   382      100.0000   141       95.0000      100.0000   869387    5.26%
Elapsed time = 150.37 sec. (139757.26 ticks, tree = 3.19 MB, solutions = 5)
   1778   391    infeasible             95.0000      100.0000   894416    5.26%
   1840   392      100.0000   147       95.0000      100.0000   923113    5.26%
   1901   385    infeasible             95.0000      100.0000   954367    5.26%
   1959   387      100.0000   138       95.0000      100.0000   983776    5.26%
   2016   384      100.0000   188       95.0000      100.0000  1013814    5.26%
   2072   384      100.0000   146       95.0000      100.0000  1043457    5.26%
   2127   381    infeasible             95.0000      100.0000  1073904    5.26%
   2185   377    infeasible             95.0000      100.0000  1104164    5.26%
   2241   381      100.0000   150       95.0000      100.0000  1130580    5.26%
   2303   380    infeasible             95.0000      100.0000  1158222    5.26%
Elapsed time = 192.72 sec. (178358.92 ticks, tree = 3.18 MB, solutions = 5)
   2360   389      100.0000   147       95.0000      100.0000  1183152    5.26%
*  2412+  391                           97.0000      100.0000             3.09%
   2412   393      100.0000   133       97.0000      100.0000  1205176    3.09%
   2480   391      100.0000   153       97.0000      100.0000  1232157    3.09%

Performing restart 1

Repeating presolve.
Tried aggregator 1 time.
MIP Presolve eliminated 0 rows and 97 columns.
MIP Presolve modified 1 coefficients.
Reduced MIP has 903 rows, 2003 columns, and 18151 nonzeros.
Reduced MIP has 2003 binaries, 0 generals, 0 SOSs, and 0 indicators.
Presolve time = 0.01 sec. (9.70 ticks)
Tried aggregator 1 time.
Reduced MIP has 903 rows, 2003 columns, and 18151 nonzeros.
Reduced MIP has 2003 binaries, 0 generals, 0 SOSs, and 0 indicators.
Presolve time = 0.01 sec. (10.49 ticks)
Represolve time = 0.14 sec. (74.44 ticks)
   2522     0      100.0000   298       97.0000   Cliques: 11  1243408    3.09%
   2522     0      100.0000   359       97.0000      Cuts: 21  1244010    3.09%
   2522     0      100.0000   322       97.0000      Cuts: 51  1244858    3.09%
   2522     0      100.0000   200       97.0000      Cuts: 28  1245451    3.09%
   2522     0      100.0000   227       97.0000      Cuts: 31  1246230    3.09%
   2522     0      100.0000   249       97.0000       Cuts: 6  1246707    3.09%
   2522     0      100.0000   129       97.0000      Cuts: 24  1246947    3.09%
   2522     0      100.0000   235       97.0000     Cuts: 112  1247223    3.09%
   2522     2      100.0000   108       97.0000      100.0000  1247223    3.09%
   2550    30      100.0000   177       97.0000      100.0000  1262383    3.09%
   2578    58      100.0000   278       97.0000      100.0000  1279130    3.09%
   2610    90      100.0000   195       97.0000      100.0000  1293335    3.09%
   2622   102      100.0000   188       97.0000      100.0000  1298176    3.09%
   2667   135       99.0000   185       97.0000      100.0000  1322072    3.09%
   2729   172      100.0000   216       97.0000      100.0000  1345080    3.09%
Elapsed time = 244.85 sec. (227467.25 ticks, tree = 1.26 MB, solutions = 6)
   2837   203       98.0000    89       97.0000      100.0000  1368871    3.09%
   2890   238      100.0000   276       97.0000      100.0000  1393888    3.09%
   2931   276      100.0000   133       97.0000      100.0000  1421990    3.09%
   3004   322    infeasible             97.0000      100.0000  1457280    3.09%
   3065   340    infeasible             97.0000      100.0000  1485103    3.09%
   3154   361       99.0000   196       97.0000      100.0000  1521721    3.09%
   3229   379       98.0000   173       97.0000      100.0000  1558280    3.09%
   3310   400       98.0000   154       97.0000      100.0000  1585720    3.09%
   3388   427    infeasible             97.0000      100.0000  1624030    3.09%
   3448   447       98.0000   155       97.0000      100.0000  1666354    3.09%
Elapsed time = 286.57 sec. (265866.42 ticks, tree = 3.55 MB, solutions = 6)
   3520   470       99.0000   153       97.0000      100.0000  1706832    3.09%
   3578   492      100.0000   299       97.0000      100.0000  1744326    3.09%
   3634   527       99.0000   155       97.0000      100.0000  1762292    3.09%
   3714   537      100.0000   296       97.0000      100.0000  1789203    3.09%
   3765   556       98.0000   119       97.0000      100.0000  1824880    3.09%
   3825   601       99.0000   189       97.0000      100.0000  1841941    3.09%
   3878   628       98.0000   135       97.0000      100.0000  1868302    3.09%
   3975   638    infeasible             97.0000      100.0000  1898741    3.09%
   4059   662       98.0000   121       97.0000      100.0000  1924613    3.09%
   4108   671    infeasible             97.0000      100.0000  1954877    3.09%
Elapsed time = 328.21 sec. (304488.04 ticks, tree = 5.45 MB, solutions = 6)
   4136   671    infeasible             97.0000      100.0000  1991853    3.09%
   4173   674    infeasible             97.0000      100.0000  2024336    3.09%
   4223   676    infeasible             97.0000      100.0000  2056523    3.09%
   4284   679      100.0000   296       97.0000      100.0000  2084667    3.09%
   4331   694       98.0000   172       97.0000      100.0000  2117323    3.09%
   4378   705      100.0000   190       97.0000      100.0000  2152470    3.09%
   4427   735       99.0000   114       97.0000      100.0000  2187370    3.09%
   4496   758       99.0000   199       97.0000      100.0000  2218132    3.09%
   4579   774       99.0000   168       97.0000      100.0000  2253872    3.09%
   4666   791       98.0000   154       97.0000      100.0000  2281251    3.09%
Elapsed time = 370.21 sec. (342995.61 ticks, tree = 6.49 MB, solutions = 6)
   4737   804      100.0000   166       97.0000      100.0000  2323667    3.09%
   4771   824       99.0000   172       97.0000      100.0000  2367220    3.09%
   4820   858       99.0000   152       97.0000      100.0000  2402712    3.09%
   4897   875       99.0000   187       97.0000      100.0000  2435745    3.09%
   4972   882    infeasible             97.0000      100.0000  2470963    3.09%
   5022   887       99.0000   200       97.0000      100.0000  2498970    3.09%
   5081   913       98.0000   140       97.0000      100.0000  2533539    3.09%
   5129   928       99.5256   241       97.0000      100.0000  2575896    3.09%
   5159   947       99.0000   216       97.0000      100.0000  2614502    3.09%
   5201   962       98.0000   173       97.0000      100.0000  2651746    3.09%
Elapsed time = 414.82 sec. (383198.04 ticks, tree = 8.01 MB, solutions = 6)
   5281   977       98.0000   160       97.0000      100.0000  2686621    3.09%
   5363   998       99.0000   232       97.0000      100.0000  2710921    3.09%
   5420  1052       98.0000   216       97.0000      100.0000  2718040    3.09%
   5495  1073       98.0000   158       97.0000      100.0000  2744597    3.09%
   5570  1096       98.0000   162       97.0000      100.0000  2776002    3.09%
   5655  1121       98.0000   158       97.0000      100.0000  2802286    3.09%
   5729  1133       99.0000   191       97.0000      100.0000  2840744    3.09%
   5798  1148       98.0000   150       97.0000      100.0000  2877131    3.09%
   5844  1170      100.0000   159       97.0000      100.0000  2918208    3.09%
   5914  1195       99.0000   155       97.0000      100.0000  2952260    3.09%
Elapsed time = 457.03 sec. (421774.74 ticks, tree = 10.22 MB, solutions = 6)
   5994  1204       99.0000   164       97.0000      100.0000  2990055    3.09%
   6071  1212    infeasible             97.0000      100.0000  3033564    3.09%
   6146  1215    infeasible             97.0000      100.0000  3079835    3.09%
   6223  1247       99.0000   179       97.0000      100.0000  3110677    3.09%
   6301  1264    infeasible             97.0000      100.0000  3147657    3.09%
   6375  1279    infeasible             97.0000      100.0000  3184468    3.09%
   6429  1299       98.0000   120       97.0000      100.0000  3225240    3.09%
   6496  1354       99.0000   162       97.0000      100.0000  3234994    3.09%
   6557  1410       98.0000   168       97.0000      100.0000  3243917    3.09%
   6633  1434      100.0000    96       97.0000      100.0000  3274783    3.09%
Elapsed time = 499.33 sec. (460106.87 ticks, tree = 12.46 MB, solutions = 6)
   6689  1450       98.0000   130       97.0000      100.0000  3321273    3.09%
   6750  1465       99.0000   119       97.0000      100.0000  3369418    3.09%
   6829  1470    infeasible             97.0000      100.0000  3395936    3.09%
   6917  1481       98.0000    98       97.0000      100.0000  3410817    3.09%
   7028  1495       98.0000   111       97.0000      100.0000  3422985    3.09%
   7123  1503       98.0000   212       97.0000      100.0000  3437649    3.09%
   7201  1521    infeasible             97.0000      100.0000  3452849    3.09%
   7286  1531       99.0000   182       97.0000      100.0000  3468606    3.09%
   7372  1547       98.0000   102       97.0000      100.0000  3482193    3.09%
Starting limited solution polishing.
   7422  1555       98.0000   196       97.0000      100.0000  3489456    3.09%
Elapsed time = 542.54 sec. (500009.53 ticks, tree = 13.59 MB, solutions = 6)
   7508  1570       98.0000   157       97.0000      100.0000  3502175    3.09%
   7605  1583       98.0000   145       97.0000      100.0000  3514960    3.09%
   7674  1602       99.0000   210       97.0000      100.0000  3529414    3.09%
   7750  1621       99.0000   181       97.0000      100.0000  3540154    3.09%
   7830  1629       98.0000   251       97.0000      100.0000  3553701    3.09%
   7907  1643       99.0000   157       97.0000      100.0000  3565863    3.09%
   7983  1655       99.0000   189       97.0000      100.0000  3579232    3.09%
   8074  1660       99.0000   151       97.0000      100.0000  3594440    3.09%
   8164  1673       99.0000   144       97.0000      100.0000  3606960    3.09%
   8241  1691       99.0000   223       97.0000      100.0000  3619493    3.09%
Elapsed time = 583.17 sec. (538413.48 ticks, tree = 14.88 MB, solutions = 6)
   8334  1702       99.0000   166       97.0000      100.0000  3630904    3.09%
   8431  1710       99.0000   183       97.0000      100.0000  3643883    3.09%
   8523  1723       99.0000   193       97.0000      100.0000  3657977    3.09%
   8606  1737       99.0000   193       97.0000      100.0000  3672419    3.09%

Clique cuts applied:  186
Zero-half cuts applied:  8

Root node processing (before b&c):
  Real time             =    4.54 sec. (4205.77 ticks)
Sequential b&c:
  Real time             =  595.46 sec. (550185.95 ticks)
                          ------------
Total (root+branch&cut) =  600.00 sec. (554391.71 ticks)
Primal:	97
Dual:	100
Status:	Feasible
Time:	599.98
Sequence:
	12
	5
	2
	12
	1
	2
	12
	18
	15
	7
	19
	3
	15
	12
	1
	5
	11
	0
	5
	2
	12
	8
	18
	12
	3
	15
	16
	6
	13
	16
	9
	13
	16
	2
	13
	16
	6
	11
	17
	4
	11
	17
	3
	14
	8
	19
	11
	8
	0
	14
	8
	16
	11
	6
	0
	15
	7
	4
	10
	7
	3
	10
	7
	4
	10
	7
	3
	10
	7
	3
	10
	7
	1
	15
	4
	1
	12
	15
	18
	7
	10
	6
	18
	13
	2
	18
	13
	0
	6
	11
	17
	6
	11
	17
	6
	11
	17
